NAME : 4ulysses16.tsp
TYPE : GTSP
COMMENT : Odyssey of Ulysses (Groetschel/Padberg)
DIMENSION : 16
GTSP_SETS : 4
EDGE_WEIGHT_TYPE : GEO
NODE_COORD_SECTION
 1 38.24 20.42
 2 39.57 26.15
 3 40.56 25.32
 4 36.26 23.12
 5 33.48 10.54
 6 37.56 12.19
 7 38.42 13.11
 8 37.52 20.44
 9 41.23 9.10
 10 41.17 13.05
 11 36.08 -5.21
 12 38.47 15.13
 13 38.15 15.35
 14 37.51 15.17
 15 35.49 14.32
 16 39.36 19.56
GTSP_SET_SECTION
1 11 -1
2 1 2 3 4 8 16 -1
3 5 14 15 -1
4 6 7 9 10 12 13 -1
EOF
